c b=3,c=143
p cnf 13 35
1 2 3 -6 0
1 2 3 -7 0
2 3 -8 0
1 3 -9 0
3 -13 0
1 2 -3 6 0
-3 7 0
1 -3 8 0
1 2 -3 9 0
-3 13 0
1 2 -5 0
1 2 -10 0
2 -12 0
-2 3 6 0
3 -10 0
-2 -3 -6 0
-2 -3 10 0
1 -2 5 0
-2 7 0
1 -2 8 0
1 -2 -9 0
-2 12 0
1 -4 0
1 -11 0
-1 3 6 0
-1 -3 -6 0
-1 -3 10 0
-1 2 5 0
-1 2 -9 0
-1 -2 -5 0
-1 -2 9 0
-1 4 0
-1 7 0
-1 -8 0
-1 11 0
